c FILE /home/rafael/Documents/HappySet/MIHS/inputs/happygen/output/graph_scale_free_k2_p0.5_v100_20241127_083804.txt
c SOURCE This is a scale-free graph formed for the happy graph colouring problem.
c DESCRIPTION It was generated using the problem generator of Rhyd Lewis
c
c GRAPH STATS
c Seed                             = -1002555884
c Number of Nodes                  = 100
c Number of colours k              = 2
c Number of pre-assignments        = 50
c Number of links per new node     = 5
c Density                          = 0.0979798
c 
c The degrees of nodes 1 to 100, respectively, are as follows 
c [32, 32, 30, 27, 26, 25, 22, 21, 21, 20, 20, 20, 20, 16, 15, 14, 14, 14, 13, 13, 13, 12, 12, 12, 12, 11, 
c  11, 10, 10, 10, 9, 9, 9, 9, 9, 8, 8, 8, 8, 8, 8, 8, 8, 8, 8, 8, 7, 7, 7, 7, 7, 
c  7, 7, 7, 7, 7, 7, 7, 7, 6, 6, 6, 6, 6, 6, 6, 6, 6, 6, 6, 6, 6, 5, 5, 5, 5, 
c  5, 5, 5, 5, 5, 5, 5, 5, 5, 5, 5, 5, 5, 5, 5, 5, 5, 5, 5, 5, 5, 5, 5, 5] 
c  
p edge 100 485 2
e 1 2
e 1 3
e 1 4
e 1 5
e 1 6
e 1 7
e 1 8
e 1 9
e 1 10
e 1 13
e 1 15
e 1 16
e 1 18
e 1 19
e 1 20
e 1 26
e 1 28
e 1 29
e 1 33
e 1 34
e 1 37
e 1 48
e 1 58
e 1 60
e 1 62
e 1 65
e 1 75
e 1 76
e 1 78
e 1 85
e 1 91
e 1 92
e 2 3
e 2 4
e 2 5
e 2 6
e 2 7
e 2 8
e 2 9
e 2 10
e 2 11
e 2 12
e 2 15
e 2 16
e 2 19
e 2 21
e 2 26
e 2 27
e 2 28
e 2 31
e 2 32
e 2 34
e 2 35
e 2 36
e 2 38
e 2 45
e 2 47
e 2 49
e 2 68
e 2 74
e 2 76
e 2 96
e 2 97
e 3 4
e 3 5
e 3 6
e 3 7
e 3 8
e 3 9
e 3 10
e 3 14
e 3 15
e 3 16
e 3 17
e 3 19
e 3 23
e 3 26
e 3 27
e 3 31
e 3 33
e 3 37
e 3 39
e 3 47
e 3 52
e 3 54
e 3 55
e 3 63
e 3 67
e 3 82
e 3 88
e 3 93
e 4 5
e 4 7
e 4 8
e 4 10
e 4 11
e 4 14
e 4 19
e 4 20
e 4 24
e 4 25
e 4 37
e 4 47
e 4 49
e 4 52
e 4 53
e 4 54
e 4 66
e 4 73
e 4 75
e 4 90
e 4 91
e 4 94
e 4 98
e 4 99
e 5 9
e 5 11
e 5 13
e 5 21
e 5 22
e 5 25
e 5 26
e 5 29
e 5 30
e 5 39
e 5 40
e 5 41
e 5 48
e 5 50
e 5 51
e 5 53
e 5 56
e 5 60
e 5 61
e 5 68
e 5 75
e 5 81
e 6 7
e 6 10
e 6 11
e 6 12
e 6 16
e 6 17
e 6 23
e 6 24
e 6 33
e 6 39
e 6 42
e 6 43
e 6 48
e 6 49
e 6 51
e 6 62
e 6 74
e 6 85
e 6 87
e 6 94
e 6 95
e 6 100
e 7 8
e 7 10
e 7 11
e 7 12
e 7 14
e 7 15
e 7 17
e 7 22
e 7 30
e 7 34
e 7 35
e 7 40
e 7 47
e 7 78
e 7 84
e 7 85
e 7 98
e 8 9
e 8 11
e 8 14
e 8 20
e 8 21
e 8 22
e 8 27
e 8 47
e 8 70
e 8 78
e 8 85
e 8 86
e 8 88
e 8 92
e 8 96
e 8 100
e 9 18
e 9 20
e 9 22
e 9 42
e 9 45
e 9 48
e 9 52
e 9 57
e 9 64
e 9 68
e 9 73
e 9 74
e 9 76
e 9 86
e 9 93
e 9 99
e 10 16
e 10 19
e 10 29
e 10 37
e 10 38
e 10 40
e 10 51
e 10 52
e 10 54
e 10 56
e 10 61
e 10 65
e 10 73
e 10 83
e 11 13
e 11 18
e 11 21
e 11 22
e 11 23
e 11 29
e 11 42
e 11 44
e 11 50
e 11 61
e 11 64
e 11 67
e 11 80
e 11 89
e 12 14
e 12 18
e 12 22
e 12 23
e 12 25
e 12 28
e 12 30
e 12 33
e 12 35
e 12 43
e 12 46
e 12 48
e 12 49
e 12 55
e 12 61
e 12 64
e 12 89
e 13 15
e 13 17
e 13 24
e 13 32
e 13 36
e 13 39
e 13 40
e 13 49
e 13 53
e 13 58
e 13 60
e 13 63
e 13 75
e 13 77
e 13 90
e 13 92
e 13 97
e 14 19
e 14 24
e 14 28
e 14 31
e 14 35
e 14 38
e 14 61
e 14 64
e 14 67
e 14 77
e 14 93
e 15 16
e 15 17
e 15 34
e 15 38
e 15 55
e 15 67
e 15 70
e 15 73
e 15 74
e 15 83
e 16 20
e 16 21
e 16 28
e 16 38
e 16 59
e 16 66
e 16 69
e 16 73
e 17 22
e 17 23
e 17 27
e 17 32
e 17 42
e 17 43
e 17 51
e 17 60
e 17 80
e 18 23
e 18 30
e 18 34
e 18 41
e 18 53
e 18 57
e 18 58
e 18 65
e 18 71
e 18 85
e 19 29
e 19 69
e 19 71
e 19 74
e 19 86
e 19 91
e 19 100
e 20 26
e 20 27
e 20 36
e 20 45
e 20 57
e 20 59
e 20 69
e 20 81
e 21 25
e 21 41
e 21 46
e 21 50
e 21 55
e 21 59
e 21 82
e 21 83
e 22 50
e 22 68
e 22 84
e 22 95
e 22 98
e 23 44
e 23 57
e 23 70
e 23 76
e 23 90
e 23 93
e 24 28
e 24 33
e 24 36
e 24 37
e 24 62
e 24 76
e 24 77
e 24 91
e 25 29
e 25 50
e 25 59
e 25 68
e 25 80
e 25 81
e 25 82
e 25 95
e 26 31
e 26 55
e 26 60
e 26 62
e 26 71
e 26 88
e 27 40
e 27 41
e 27 64
e 27 71
e 27 72
e 27 75
e 28 45
e 28 63
e 28 84
e 28 92
e 29 32
e 29 70
e 29 78
e 29 79
e 30 41
e 30 50
e 30 56
e 30 58
e 30 70
e 30 79
e 31 42
e 31 44
e 31 51
e 31 79
e 31 83
e 32 51
e 32 53
e 32 77
e 32 88
e 32 96
e 33 54
e 33 56
e 33 63
e 33 99
e 34 63
e 34 66
e 34 72
e 34 81
e 35 39
e 35 82
e 35 83
e 35 88
e 35 94
e 36 44
e 36 48
e 36 69
e 36 84
e 37 46
e 37 79
e 37 89
e 38 39
e 38 58
e 38 72
e 39 52
e 39 65
e 40 46
e 40 86
e 40 90
e 41 72
e 41 79
e 41 97
e 42 43
e 42 84
e 42 91
e 43 60
e 43 82
e 43 95
e 43 99
e 44 46
e 44 56
e 44 69
e 44 100
e 45 65
e 45 72
e 45 80
e 45 87
e 46 78
e 46 81
e 46 95
e 47 57
e 47 87
e 48 87
e 49 51
e 49 89
e 50 62
e 52 94
e 52 100
e 53 65
e 53 80
e 54 61
e 54 66
e 54 87
e 55 66
e 55 77
e 56 62
e 56 67
e 57 94
e 57 98
e 58 86
e 58 97
e 59 66
e 59 97
e 59 98
e 63 96
e 64 89
e 67 93
e 68 71
e 69 90
e 70 92
e 71 99
e 72 96
n 3 2
n 10 2
n 12 1
n 16 2
n 18 1
n 20 2
n 24 2
n 32 2
n 34 1
n 35 1
n 36 2
n 41 1
n 42 1
n 43 1
n 44 2
n 45 2
n 47 2
n 50 2
n 51 2
n 54 2
n 56 2
n 58 1
n 60 1
n 62 2
n 64 1
n 67 2
n 68 1
n 70 2
n 71 1
n 73 2
n 74 2
n 75 1
n 76 2
n 77 2
n 78 1
n 79 1
n 80 2
n 85 1
n 86 1
n 87 2
n 90 1
n 92 2
n 93 2
n 94 1
n 95 1
n 96 2
n 97 1
n 98 2
n 99 1
n 100 2
